c --- [ banner ] -------------------------------------------------------------
c 
c CaDiCaL Radically Simplified CDCL SAT Solver
c Copyright (c) 2016-2021 A. Biere, M. Fleury, N. Froleyks
c 
c Version 1.5.2 a5f15211db36c3956764e18194dd5bd63bf3b5e6
c g++ (GCC) 9.3.0 -Wall -Wextra -O3 -DNDEBUG
c Fri Oct 21 01:27:37 EDT 2022 Linux gra-login3 3.10.0-1160.66.1.el7.x86_64 x86_64
c 
c --- [ limit ] --------------------------------------------------------------
c 
c setting conflict limit to 200000 conflicts (due to '200000')
c 
c --- [ parsing input ] ------------------------------------------------------
c 
c reading DIMACS file from '33.cubes3107.adj'
c opening file to read '33.cubes3107.adj'
c found 'p cnf 6160 1595481' header
c parsed 1595481 clauses in 19.24 seconds process time
c closing file '33.cubes3107.adj'
c after reading 1457566820 bytes 1390.0 MB
c 
c --- [ options ] ------------------------------------------------------------
c 
c all options are set to their default value
c 
c --- [ solving ] ------------------------------------------------------------
c 
c time measured in process time since initialization
c 
c  seconds    reductions  redundant   irredundant
c          MB     restarts       trail       variables
c            level   conflicts       glue         remaining
c 
c * 19.24 1388  0 0   0    0    0  0% 0 1595422 2298 37%
c { 20.29 1444  0 0   0    0    0  0% 0 1595422 2298 37%
c i 20.74 1455 852 0   0    7    6 30% 2 1595422 2297 37%
c - 33.66 1535 146 1  37  300  272 27% 30 595560 2297 37%
c i 34.75 1468 109 1  37  448  389 28% 25 595560 2296 37%
c i 34.81 1468 108 1  37  457  395 28% 25 595560 2284 37%
c i 35.18 1468 107 1  39  482  418 28% 26 595560 2274 37%
c i 35.19 1468 107 1  40  485  419 28% 26 595560 2273 37%
c i 35.81 1469 102 1  54  546  473 28% 27 595560 2269 37%
c i 37.94 1472 96 1  74  672  586 28% 29 595560 2268 37%
c i 38.41 1472 96 1  77  720  630 28% 29 595560 2267 37%
c i 38.61 1472 93 1  78  760  650 28% 29 595560 2266 37%
c i 39.31 1474 92 1  91  818  701 28% 30 595560 2265 37%
c i 39.74 1474 90 1 104  869  744 28% 30 595560 2264 37%
c i 39.75 1474 89 1 104  872  746 28% 30 595560 2263 37%
c i 40.34 1475 85 1 110  970  839 28% 30 595560 2262 37%
c } 40.45 1475 83 1 110 1001  868 28% 30 595560 2262 37%
c [ 40.45 1475  0 1 110 1001  868  0% 0 595560 2262 37%
c O 40.45 1475  2 1 110 1002  869 13% 1 595560 2262 37%
c i 40.85 1475 23 1 110 1098  940 34% 18 595560 2261 37%
c 
c  seconds    reductions  redundant   irredundant
c          MB     restarts       trail       variables
c            level   conflicts       glue         remaining
c 
c - 42.39 1733 22 2 110 1365 1053 34% 19 595170 2261 37%
c i 43.06 1693 22 2 111 2325 1772 33% 19 595170 2260 37%
c - 44.12 1693 22 3 111 2965 1661 32% 19 595167 2260 37%
c ] 44.65 1692 22 3 111 3001 1682 54% 19 595167 2260 37%
c { 44.65 1692 83 3 111 3001 1682 76% 30 595167 2260 37%
c F 44.70 1692 83 3 111 3005 1686 76% 30 595167 2260 37%
c i 48.96 1692 58 3 167 4252 2715 60% 26 595167 2259 37%
c i 49.62 1692 59 3 175 4304 2763 60% 26 595167 2258 37%
c i 50.55 1692 59 3 195 4395 2838 60% 27 595167 2257 37%
c i 53.00 1692 61 3 238 4659 3056 58% 27 595167 2256 37%
c d 54.47 1692 58 3 245 5000 3342 57% 27 595147 2252 37%
c 2 54.60 1693 58 3 245 5000 4082 57% 27 595146 2245 36%
c p 61.40 1693 58 3 245 5000 6466 57% 27 595146 2201 36%
c d 62.22 1693 58 3 245 5000 6388 57% 27 489662 2198 36%
c - 63.29 1576 57 4 245 5094 2466 57% 27 489662 2198 36%
c # 64.42 1576 50 4 245 6007 3119 54% 26 489662 2198 36%
c } 68.43 1576 48 4 302 7001 3897 53% 26 489662 2198 36%
c [ 68.43 1576 22 4 302 7001 3897 54% 19 489662 2198 36%
c - 69.28 1377 23 5 303 7630 3107 52% 19 489662 2198 36%
c I 70.67 1377 24 5 304 10008 4741 50% 20 489662 2198 36%
c 
c  seconds    reductions   redundant   irredundant
c          MB     restarts        trail       variables
c            level    conflicts       glue         remaining
c 
c - 74.86 1578 28 6 305 10672 3641 49% 22 489662 2198 36%
c - 88.19 1377 33 7 307 14221 4594 48% 25 489662 2198 36%
c 2 91.17 1377 34 7 307 15000 6183 49% 25 489660 2198 36%
c p 94.50 1377 34 7 307 15000 8652 49% 25 489660 2198 36%
c ] 94.65 1377 34 7 307 15002 8654 49% 25 489660 2198 36%
c { 94.65 1377 48 7 307 15002 8654 53% 26 489660 2198 36%
c B 95.01 1377 48 7 307 15009 8660 53% 26 489660 2198 36%
c - 101.47 1578 41 8 352 18277 5741 51% 24 489660 2198 36%
c s 101.98 1578 40 8 352 18879 6092 51% 23 487154 2198 36%
c v 107.91 1578 40 8 352 18879 6092 51% 23 487131 2198 36%
c t 108.09 1578 40 8 352 18879 6084 51% 23 487117 2198 36%
c e 110.00 1579 40 8 352 18879 5629 51% 23 485261 1053 17%
c s 110.16 1579 40 8 352 18879 5629 51% 23 481266 1053 17%
c W 116.67 1379 38 8 411 21013 7165 67% 23 481266 1053 17%
c } 126.42 1379 39 8 598 22596 8460 66% 24 481266 1053 17%
c 1 126.42 1379 39 8 598 22596 8460 66% 24 481266 1053 17%
c 
c --- [ writing output ] -----------------------------------------------------
c 
c writing simplified CNF to DIMACS file 'simp/33.cubes3107.adj.simp1'
c * 126.42 1379 39 8 598 22596 8460 66% 24 481266 1053 17%
c opening file to write 'simp/33.cubes3107.adj.simp1'
c writing 'p cnf 6160 481266' header
c closing file 'simp/33.cubes3107.adj.simp1'
c after writing 230938801 bytes 220.2 MB
c wrote 481266 clauses in 1.61 seconds process time
c 
c --- [ writing extension ] --------------------------------------------------
c 
c writing extension stack to 'simp/33.cubes3107.adj.ext1'
c opening file to write 'simp/33.cubes3107.adj.ext1'
c closing file 'simp/33.cubes3107.adj.ext1'
c after writing 78928 bytes 0.1 MB
c wrote 3550 witnesses in 0.00 seconds process time
c 
c --- [ result ] -------------------------------------------------------------
c 
s SATISFIABLE
c 
c --- [ run-time profiling ] -------------------------------------------------
c 
c process time taken by individual solving procedures
c (percentage relative to process time for solving)
c 
c        85.10   79.40% search
c        56.76   52.96% unstable
c        26.93   25.13% stable
c        22.08   20.60% simplify
c        19.24   17.95% parse
c        10.12    9.44% probe
c         6.04    5.64% vivify
c         3.57    3.33% elim
c         1.05    0.98% lucky
c         0.36    0.34% walk
c         0.30    0.28% subsume
c         0.16    0.15% ternary
c   =================================
c       107.18   83.71% solve
c 
c last line shows process time for solving
c (percentage relative to total process time)
c 
c --- [ statistics ] ---------------------------------------------------------
c 
c chronological:              5200        23.01 %  of conflicts
c conflicts:                 22596       210.82    per second
c decisions:                 73092       681.94    per second
c eliminated:                 1145        18.59 %  of all variables
c fixed:                       811        13.17 %  of all variables
c learned:                   22004        97.38 %  per conflict
c learned_lits:            3422036       100.00 %  learned literals
c minimized:                     0         0.00 %  learned literals
c shrunken:                1875402        54.80 %  learned literals
c minishrunken:             341752         9.99 %  learned literals
c propagations:            3290929         0.03 M  per second
c reduced:                    8721        38.60 %  per conflict
c rephased:                      6      3766.00    interval
c restarts:                    598        37.79    interval
c stabilizing:                   2        44.26 %  of conflicts
c substituted:                   7         0.11 %  of all variables
c subsumed:                  11190         0.33 %  of all clauses
c strengthened:               3276         0.10 %  of all clauses
c ternary:                    1711         0.54 %  of resolved
c vivified:                     50         0.00 %  of all clauses
c walked:                        1     22596.00    interval
c weakened:                   2739         3.11    average size
c 
c seconds are measured in process time for solving
c 
c --- [ resources ] ----------------------------------------------------------
c 
c total process time since initialization:       128.04    seconds
c total real time since initialization:          129.93    seconds
c maximum resident set size of process:         1950.05    MB
c 
c --- [ shutting down ] ------------------------------------------------------
c 
c exit 10
WARNING! DIMACS header mismatch: wrong number of variables.
============================[ Problem Statistics ]=============================
|                                                                             |
|  Number of variables:          4040                                         |
|  Number of clauses:          481266                                         |
|  Parse time:                   3.09 s                                       |
|  Simplification time:          0.09 s                                       |
|                                                                             |
============================[ Search Statistics ]====================================================
| Conflicts |          ORIGINAL         |          LEARNT          | Num Sols |      SUBGRAPHS      |
|           |    Vars  Clauses Literals |    Limit  Clauses Lit/Cl |          | Canonical Noncanon. |
=====================================================================================================
|       108 |    3949   481274 49888910 |     2000      108    176 |        0 |        11         8 |
|       264 |    3949   481280 49889184 |     2000      264    132 |        0 |        34        14 |
|       589 |    3949   481380 49891302 |     2000      589     88 |        0 |        66       114 |
|       950 |    3949   481404 49891763 |     2000      950     95 |        0 |        77       138 |
|      1462 |    3949   481410 49891962 |     2000     1462     95 |        0 |        83       144 |
|      2305 |    3949   481494 49893697 |     3600     1305     71 |        0 |       117       228 |
|      3518 |    3949   481568 49895269 |     3600     2518     97 |        0 |       151       302 |
|      5529 |    3949   481871 49899963 |     4999     2728     52 |        0 |       247       605 |
|      8474 |    3949   482254 49905849 |     6301     3175     38 |        0 |       416       988 |
|     12697 |    3949   482633 49913269 |     7558     4255     40 |        0 |       544      1367 |
|     18824 |    3949   482994 49920093 |     8787     6611     55 |        0 |       654      1728 |
|     27785 |    3949   483306 49926778 |    11203     6188     31 |        0 |       812      2040 |
|     41194 |    3949   483741 49936049 |    13604     7798     30 |        0 |      1012      2475 |
|     60908 |    3949   483994 49940702 |    16012    13320     58 |        0 |      1130      2728 |
|     91474 |    3949   485368 49963667 |    19608    18082     63 |        0 |      1614      4102 |
|    137635 |    3949   487740 50003502 |    24416    21451     56 |        0 |      2306      6474 |
|    204497 |    3949   488918 50024619 |    30419    21316     50 |        0 |      2777      7652 |
|    303841 |    3949   489736 50039018 |    37617    20458     37 |        0 |      3098      8470 |
|    468942 |    3949   507048 50378868 |    46012    41354     56 |        0 |     10632     25782 |
|    699052 |    3949   515475 50553713 |    56821    42873     60 |        0 |     14450     34209 |
|   1063919 |    3949   547817 51255123 |    70020    62339     61 |        0 |     28094     66551 |
|   1596114 |    3949   581224 51975702 |    86816    49930     36 |        0 |     39379     99958 |
|   2364104 |    3949   601032 52398903 |   104816   103920     68 |        1 |     45003    119765 |
|   3504549 |    3949   619203 52827545 |   128829    82378     43 |        1 |     52171    137936 |
|   5285889 |    3949   717132 55061371 |   157625   152514     62 |        5 |     78836    235861 |
|   7885776 |    3949   791903 56893162 |   193635   127411     47 |        7 |    103904    310630 |
|  11813271 |    3949   931723 59985047 |   236839   192110     51 |        8 |    150293    450449 |
|  17807243 |    3949  1244183 67061159 |   290825   264068     50 |       10 |    230340    762907 |
=====================================================================================================
Number of solutions   : 13
Canonical subgraphs   : 288399         (5 /sec)
          order  3    : 1              (166667 /sec)
          order  4    : 1              (500000 /sec)
          order  5    : 1              (200000 /sec)
          order  6    : 1              (55556 /sec)
          order  7    : 1              (8850 /sec)
          order  8    : 2              (1359 /sec)
          order  9    : 4              (240 /sec)
          order 10    : 13             (60 /sec)
          order 11    : 52             (17 /sec)
          order 12    : 349            (6 /sec)
          order 13    : 4272           (5 /sec)
          order 14    : 20025          (4 /sec)
          order 15    : 63022          (6 /sec)
          order 16    : 163299         (6 /sec)
          order 17    : 29910          (5 /sec)
          order 18    : 6199           (5 /sec)
          order 19    : 1093           (5 /sec)
          order 20    : 95             (5 /sec)
          order 21    : 46             (5 /sec)
          order 22    : 13             (0 /sec)
Noncanonical subgraphs: 1004417        (63 /sec)
          order  3    : 0              (-nan /sec)
          order  4    : 0              (-nan /sec)
          order  5    : 0              (-nan /sec)
          order  6    : 0              (-nan /sec)
          order  7    : 0              (-nan /sec)
          order  8    : 0              (-nan /sec)
          order  9    : 0              (-nan /sec)
          order 10    : 0              (-nan /sec)
          order 11    : 0              (-nan /sec)
          order 12    : 0              (-nan /sec)
          order 13    : 9860           (6459 /sec)
          order 14    : 95368          (909 /sec)
          order 15    : 212407         (349 /sec)
          order 16    : 167197         (324 /sec)
          order 17    : 516887         (36 /sec)
          order 18    : 2366           (32 /sec)
          order 19    : 299            (21 /sec)
          order 20    : 0              (-nan /sec)
          order 21    : 0              (-nan /sec)
Canonicity checking   : 52546.6 s
Noncanonicity checking: 15820.7 s
Total canonicity time : 68367.4 s
database reductions   : 293
restarts              : 36188
conflicts             : 26383072       (321 /sec)
decisions             : 34089511       (0.00 % random) (415 /sec)
propagations          : 1507411458     (18344 /sec)
conflict literals     : 2698351328     (56.37 % deleted)
actual reward         : 0.220184
Memory used           : 1050.00 MB
CPU time              : 82175.8 s

UNSATISFIABLE
